* #variable= 91 #constraint= 481 #product= 546 sizeproduct= 1092
min: -1 x1 +2 x1 x52 -1 x52 +2 x1 x56 +1 x56 -2 x1 x76 -2 x76 -2 x1 x77 +1 x77 +2 x1 x81 +3 x81 +2 x2 x52 -1 x2 +2 x2 x56 +2 x2 x64 +7 x64 +2 x2 x66 +8 x66 +2 x2 x77 -2 x2 x78 -4 x78 -2 x2 x79 -3 x79 -2 x2 x85 -5 x85 -2 x2 x86 -4 x86 +2 x3 x47 -2 x3 -8 x47 +2 x3 x52 -2 x3 x54 -3 x54 -2 x3 x56 +2 x3 x58 -6 x58 +2 x3 x60 -3 x60 -2 x3 x65 -1 x65 -2 x3 x66 -2 x3 x76 -2 x3 x77 +2 x3 x82 -1 x82 +2 x3 x83 +2 x83 +2 x3 x85 +2 x3 x86 +2 x4 x47 -1 x4 +2 x4 x50 -9 x50 +2 x4 x52 -2 x4 x54 -2 x4 x56 +2 x4 x58 +2 x4 x62 -12 x62 -2 x4 x65 -2 x4 x66 -2 x4 x71 -1 x71 -2 x4 x72 +10 x72 -2 x4 x76 -2 x4 x77 +2 x4 x82 +2 x4 x84 -3 x84 +2 x4 x85 +2 x4 x87 -11 x87 +2 x5 x50 -2 x5 x60 +2 x5 x62 +2 x5 x63 -4 x63 -2 x5 x68 +3 x68 +2 x5 x69 -11 x69 -2 x5 x70 +10 x70 -2 x5 x73 +2 x73 -2 x5 x74 +5 x74 -2 x5 x79 +2 x5 x80 -10 x80 -2 x5 x88 +2 x88 +2 x5 x89 -5 x89 +2 x5 x90 -9 x90 +2 x6 x47 -3 x6 +2 x6 x50 +2 x6 x56 +2 x6 x60 -2 x6 x65 -2 x6 x66 -2 x6 x71 -2 x6 x72 +2 x6 x81 +2 x6 x83 +2 x6 x86 +2 x7 x47 -2 x7 +2 x7 x50 +2 x7 x56 +2 x7 x60 +2 x7 x63 -2 x7 x64 +2 x7 x66 -2 x7 x67 -1 x67 -2 x7 x70 -2 x7 x73 -2 x7 x74 +2 x7 x77 +2 x7 x79 -2 x7 x85 -2 x7 x86 +2 x7 x88 +2 x8 x50 -2 x8 +2 x8 x60 -2 x8 x71 -2 x8 x72 +2 x8 x83 +2 x8 x86 +2 x9 x50 -3 x9 +2 x9 x60 +2 x9 x63 +2 x9 x68 -2 x9 x70 -2 x9 x73 -2 x9 x74 +2 x9 x79 +2 x9 x88 +2 x10 x47 +3 x10 -2 x10 x56 -2 x10 x65 -2 x10 x66 -2 x10 x81 -2 x11 x52 +5 x11 +2 x11 x54 -2 x11 x58 -2 x11 x60 -2 x11 x64 +2 x11 x65 -2 x11 x67 -2 x11 x68 +2 x11 x76 -2 x11 x82 -2 x11 x83 +2 x12 x47 -9 x12 +2 x12 x50 +2 x12 x56 +2 x12 x58 +2 x12 x60 +2 x12 x62 -2 x12 x65 -2 x12 x66 -2 x12 x71 -2 x12 x72 +2 x12 x81 +2 x12 x82 +2 x12 x83 +2 x12 x84 +2 x12 x85 +2 x12 x86 +2 x12 x87 +2 x13 x47 -9 x13 +2 x13 x50 +2 x13 x56 +2 x13 x58 +2 x13 x60 +2 x13 x62 +2 x13 x63 -2 x13 x64 +2 x13 x66 +2 x13 x69 -2 x13 x70 -2 x13 x73 -2 x13 x74 +2 x13 x77 +2 x13 x78 +2 x13 x79 +2 x13 x80 -2 x13 x85 -2 x13 x86 +2 x13 x89 +2 x13 x90 +2 x14 x47 +2 x14 +2 x14 x50 +2 x14 x52 -2 x14 x54 -2 x14 x56 +2 x14 x62 -2 x14 x65 -2 x14 x66 -2 x14 x71 -2 x14 x72 -2 x14 x76 -2 x14 x77 +2 x14 x84 +2 x14 x87 +2 x15 x50 +2 x15 -2 x15 x58 -2 x15 x60 +2 x15 x62 +2 x15 x63 -2 x15 x67 -2 x15 x68 +2 x15 x69 -2 x15 x70 -2 x15 x73 -2 x15 x74 -2 x15 x78 -2 x15 x79 +2 x15 x80 +2 x15 x89 +2 x15 x90 -2 x16 x48 -3 x16 +5 x48 -2 x16 x53 +2 x53 +2 x16 x54 -2 x16 x55 +4 x55 +2 x16 x58 +2 x16 x62 -2 x16 x81 +2 x16 x82 +2 x16 x84 +2 x16 x85 +2 x16 x87 -2 x17 x46 -3 x17 +6 x46 -2 x17 x48 -2 x17 x51 +4 x51 +2 x17 x54 -2 x17 x57 +3 x57 +2 x17 x58 -2 x17 x59 +4 x59 +2 x17 x62 +2 x17 x65 +2 x17 x67 +2 x17 x69 +2 x17 x76 +2 x17 x78 +2 x17 x80 -2 x17 x82 -2 x17 x83 -2 x17 x88 +2 x17 x89 +2 x17 x90 -2 x18 x52 +3 x18 -2 x18 x56 -2 x18 x64 -2 x18 x66 -2 x18 x70 -2 x18 x72 -2 x18 x77 +2 x18 x78 +2 x18 x80 +2 x18 x85 +2 x18 x87 -2 x19 x64 +1 x19 -2 x19 x66 -2 x19 x70 -2 x19 x72 +2 x19 x77 +2 x19 x79 +2 x19 x86 -2 x20 x70 -2 x20 x72 +2 x20 x79 +2 x20 x86 -2 x21 x52 +4 x21 -2 x21 x56 -2 x21 x64 -2 x21 x66 +2 x21 x76 -2 x21 x81 -2 x22 x64 -3 x22 -2 x22 x66 -2 x22 x70 -2 x22 x72 +2 x22 x77 +2 x22 x78 +2 x22 x79 +2 x22 x80 +2 x22 x85 +2 x22 x86 +2 x22 x87 -2 x23 x52 +5 x23 -2 x23 x56 -2 x23 x64 -2 x23 x66 -2 x23 x70 -2 x23 x72 -2 x23 x77 +2 x23 x80 +2 x23 x87 -2 x24 x51 -2 x24 -2 x24 x55 +2 x24 x76 +2 x24 x78 +2 x24 x80 -2 x24 x81 +2 x24 x85 +2 x24 x87 +2 x25 x47 -2 x25 +2 x25 x50 +2 x25 x56 +2 x25 x60 -2 x25 x64 +2 x25 x66 -2 x25 x67 +2 x25 x68 -2 x25 x69 -2 x25 x70 +2 x25 x72 -2 x25 x73 +2 x25 x74 -2 x25 x75 -7 x75 +2 x25 x77 +2 x25 x79 -2 x25 x85 -2 x25 x87 +2 x25 x88 -2 x25 x90 +2 x26 x50 -3 x26 +2 x26 x60 +2 x26 x63 +2 x26 x68 -2 x26 x70 -2 x26 x73 +2 x26 x74 -2 x26 x75 +2 x26 x79 +2 x26 x88 -2 x26 x90 -2 x27 x50 +6 x27 -2 x27 x52 +2 x27 x54 -2 x27 x58 -2 x27 x62 -2 x27 x63 -2 x27 x64 +2 x27 x65 -2 x27 x67 -2 x27 x69 +2 x27 x71 +2 x27 x76 -2 x27 x82 -2 x27 x84 +2 x28 x47 -10 x28 +2 x28 x50 +2 x28 x56 +2 x28 x58 +2 x28 x60 +2 x28 x62 -2 x28 x64 +2 x28 x66 +2 x28 x68 -2 x28 x70 +2 x28 x72 +2 x28 x74 +2 x28 x77 +2 x28 x78 +2 x28 x79 +2 x28 x80 -2 x28 x85 -2 x28 x87 +2 x28 x88 -2 x28 x90 -2 x29 x58 +3 x29 -2 x29 x67 -2 x29 x73 -2 x29 x78 +2 x29 x89 -2 x30 x46 -4 x30 -2 x30 x48 -2 x30 x49 +5 x49 -2 x30 x51 +2 x30 x54 -2 x30 x57 +2 x30 x58 -2 x30 x61 +3 x61 +2 x30 x62 +2 x30 x65 +2 x30 x67 +2 x30 x69 +2 x30 x71 +2 x30 x73 +2 x30 x75 +2 x30 x76 +2 x30 x78 +2 x30 x80 -2 x30 x82 -2 x30 x84 +2 x31 x63 -2 x31 +2 x31 x68 -2 x31 x72 +2 x31 x86 -2 x32 x47 +7 x32 -2 x32 x50 -2 x32 x56 -2 x32 x60 -2 x32 x63 +2 x32 x65 -2 x32 x66 -2 x32 x68 +2 x32 x71 -2 x32 x81 -2 x32 x83 +2 x33 x67 -6 x33 +2 x33 x69 +2 x33 x73 +2 x33 x75 +2 x33 x85 +2 x33 x87 -2 x33 x88 +2 x33 x90 -2 x34 x47 +4 x34 -2 x34 x50 -2 x34 x56 -2 x34 x60 +2 x34 x64 -2 x34 x66 -2 x34 x68 +2 x34 x69 +2 x34 x70 -2 x34 x72 -2 x34 x74 +2 x34 x75 -2 x34 x77 -2 x34 x79 +2 x34 x87 +2 x34 x90 -2 x35 x46 -2 x35 -2 x35 x49 -2 x35 x55 -2 x35 x59 +2 x35 x65 +2 x35 x67 +2 x35 x69 +2 x35 x71 +2 x35 x73 +2 x35 x75 -2 x35 x81 -2 x35 x83 +2 x35 x85 +2 x35 x87 -2 x35 x88 +2 x35 x90 -2 x36 x50 +4 x36 -2 x36 x60 -2 x36 x63 -2 x36 x68 +2 x36 x71 -2 x36 x83 -2 x37 x63 -2 x37 x68 +2 x37 x72 +2 x37 x73 +2 x37 x75 -2 x37 x86 -2 x37 x88 +2 x37 x90 -2 x38 x50 +3 x38 -2 x38 x60 -2 x38 x63 -2 x38 x68 +2 x38 x70 -2 x38 x74 +2 x38 x75 -2 x38 x79 +2 x38 x90 -2 x39 x49 -2 x39 x59 +2 x39 x71 +2 x39 x73 +2 x39 x75 -2 x39 x83 -2 x39 x88 +2 x39 x90 +2 x40 x47 -13 x40 +2 x40 x50 +2 x40 x56 +2 x40 x58 +2 x40 x60 +2 x40 x62 +2 x40 x63 -2 x40 x65 +2 x40 x66 +2 x40 x67 +2 x40 x68 +2 x40 x69 -2 x40 x71 +2 x40 x81 +2 x40 x82 +2 x40 x83 +2 x40 x84 +2 x41 x50 -3 x41 +2 x41 x52 -2 x41 x54 +2 x41 x62 +2 x41 x63 +2 x41 x64 -2 x41 x65 +2 x41 x69 -2 x41 x71 -2 x41 x76 +2 x41 x84 -2 x42 x46 -5 x42 -2 x42 x48 -2 x42 x53 +2 x42 x54 +2 x42 x58 +2 x42 x62 +2 x42 x65 +2 x42 x67 +2 x42 x69 +2 x42 x82 +2 x42 x84 -2 x43 x47 +11 x43 -2 x43 x50 -2 x43 x56 -2 x43 x58 -2 x43 x60 -2 x43 x62 +2 x43 x64 -2 x43 x66 -2 x43 x67 -2 x43 x68 +2 x43 x70 -2 x43 x72 -2 x43 x73 -2 x43 x74 -2 x43 x77 -2 x43 x78 -2 x43 x79 -2 x43 x80 +2 x43 x87 +2 x43 x89 +2 x43 x90 -2 x44 x46 +2 x44 -2 x44 x49 -2 x44 x55 -2 x44 x57 -2 x44 x59 -2 x44 x61 +2 x44 x65 +2 x44 x67 +2 x44 x69 +2 x44 x71 +2 x44 x73 +2 x44 x75 -2 x44 x81 -2 x44 x82 -2 x44 x83 -2 x44 x84 +2 x44 x85 +2 x44 x87 -2 x44 x88 +2 x44 x90 -2 x45 x46 -5 x45 -2 x45 x48 -2 x45 x49 -2 x45 x51 +2 x45 x54 +2 x45 x58 -2 x45 x61 +2 x45 x62 +2 x45 x65 +2 x45 x67 +2 x45 x69 +2 x45 x71 +2 x45 x73 +2 x45 x75 +2 x45 x76 +2 x45 x78 +2 x45 x80 -2 x45 x84 -2 x45 x89 +338 x91 ;
+1 x1 -1 x2 -1 x3 >= -1 ;
-1 x3 +1 x4 -1 x5 >= -1 ;
-1 x3 +1 x6 -1 x7 >= -1 ;
-1 x3 +1 x8 -1 x9 >= -1 ;
-1 x3 +1 x10 -1 x11 >= -1 ;
-1 x3 +1 x12 -1 x13 >= -1 ;
-1 x3 +1 x14 -1 x15 >= -1 ;
-1 x3 +1 x16 -1 x17 >= -1 ;
-1 x1 +1 x4 -1 x18 >= -1 ;
-1 x1 +1 x6 -1 x19 >= -1 ;
-1 x1 +1 x8 -1 x20 >= -1 ;
-1 x1 +1 x10 -1 x21 >= -1 ;
-1 x1 +1 x12 -1 x22 >= -1 ;
-1 x1 +1 x14 -1 x23 >= -1 ;
-1 x1 +1 x16 -1 x24 >= -1 ;
-1 x4 +1 x6 -1 x25 >= -1 ;
-1 x4 +1 x8 -1 x26 >= -1 ;
-1 x4 +1 x10 -1 x27 >= -1 ;
-1 x4 +1 x12 -1 x28 >= -1 ;
-1 x4 +1 x14 -1 x29 >= -1 ;
-1 x4 +1 x16 -1 x30 >= -1 ;
-1 x6 +1 x8 -1 x31 >= -1 ;
-1 x6 +1 x10 -1 x32 >= -1 ;
-1 x6 +1 x12 -1 x33 >= -1 ;
-1 x6 +1 x14 -1 x34 >= -1 ;
-1 x6 +1 x16 -1 x35 >= -1 ;
-1 x8 +1 x10 -1 x36 >= -1 ;
-1 x8 +1 x12 -1 x37 >= -1 ;
-1 x8 +1 x14 -1 x38 >= -1 ;
-1 x8 +1 x16 -1 x39 >= -1 ;
-1 x10 +1 x12 -1 x40 >= -1 ;
-1 x10 +1 x14 -1 x41 >= -1 ;
-1 x10 +1 x16 -1 x42 >= -1 ;
-1 x12 +1 x14 -1 x43 >= -1 ;
-1 x12 +1 x16 -1 x44 >= -1 ;
-1 x14 +1 x16 -1 x45 >= -1 ;
-1 x2 +1 x5 -1 x18 >= -1 ;
-1 x2 +1 x7 -1 x19 >= -1 ;
-1 x2 +1 x9 -1 x20 >= -1 ;
-1 x2 +1 x11 -1 x21 >= -1 ;
-1 x2 +1 x13 -1 x22 >= -1 ;
-1 x2 +1 x15 -1 x23 >= -1 ;
-1 x2 +1 x17 -1 x24 >= -1 ;
-1 x5 +1 x7 -1 x25 >= -1 ;
-1 x5 +1 x9 -1 x26 >= -1 ;
-1 x5 +1 x11 -1 x27 >= -1 ;
-1 x5 +1 x13 -1 x28 >= -1 ;
-1 x5 +1 x15 -1 x29 >= -1 ;
-1 x5 +1 x17 -1 x30 >= -1 ;
-1 x7 +1 x9 -1 x31 >= -1 ;
-1 x7 +1 x11 -1 x32 >= -1 ;
-1 x7 +1 x13 -1 x33 >= -1 ;
-1 x7 +1 x15 -1 x34 >= -1 ;
-1 x7 +1 x17 -1 x35 >= -1 ;
-1 x9 +1 x11 -1 x36 >= -1 ;
-1 x9 +1 x13 -1 x37 >= -1 ;
-1 x9 +1 x15 -1 x38 >= -1 ;
-1 x9 +1 x17 -1 x39 >= -1 ;
-1 x11 +1 x13 -1 x40 >= -1 ;
-1 x11 +1 x15 -1 x41 >= -1 ;
-1 x11 +1 x17 -1 x42 >= -1 ;
-1 x13 +1 x15 -1 x43 >= -1 ;
-1 x13 +1 x17 -1 x44 >= -1 ;
-1 x15 +1 x17 -1 x45 >= -1 ;
-1 x18 +1 x19 -1 x25 >= -1 ;
-1 x18 +1 x20 -1 x26 >= -1 ;
-1 x18 +1 x21 -1 x27 >= -1 ;
-1 x18 +1 x22 -1 x28 >= -1 ;
-1 x18 +1 x23 -1 x29 >= -1 ;
-1 x18 +1 x24 -1 x30 >= -1 ;
-1 x19 +1 x20 -1 x31 >= -1 ;
-1 x19 +1 x21 -1 x32 >= -1 ;
-1 x19 +1 x22 -1 x33 >= -1 ;
-1 x19 +1 x23 -1 x34 >= -1 ;
-1 x19 +1 x24 -1 x35 >= -1 ;
-1 x20 +1 x21 -1 x36 >= -1 ;
-1 x20 +1 x22 -1 x37 >= -1 ;
-1 x20 +1 x23 -1 x38 >= -1 ;
-1 x20 +1 x24 -1 x39 >= -1 ;
-1 x21 +1 x22 -1 x40 >= -1 ;
-1 x21 +1 x23 -1 x41 >= -1 ;
-1 x21 +1 x24 -1 x42 >= -1 ;
-1 x22 +1 x23 -1 x43 >= -1 ;
-1 x22 +1 x24 -1 x44 >= -1 ;
-1 x23 +1 x24 -1 x45 >= -1 ;
-1 x25 +1 x26 -1 x31 >= -1 ;
-1 x25 +1 x27 -1 x32 >= -1 ;
-1 x25 +1 x28 -1 x33 >= -1 ;
-1 x25 +1 x29 -1 x34 >= -1 ;
-1 x25 +1 x30 -1 x35 >= -1 ;
-1 x26 +1 x27 -1 x36 >= -1 ;
-1 x26 +1 x28 -1 x37 >= -1 ;
-1 x26 +1 x29 -1 x38 >= -1 ;
-1 x26 +1 x30 -1 x39 >= -1 ;
-1 x27 +1 x28 -1 x40 >= -1 ;
-1 x27 +1 x29 -1 x41 >= -1 ;
-1 x27 +1 x30 -1 x42 >= -1 ;
-1 x28 +1 x29 -1 x43 >= -1 ;
-1 x28 +1 x30 -1 x44 >= -1 ;
-1 x29 +1 x30 -1 x45 >= -1 ;
-1 x31 +1 x32 -1 x36 >= -1 ;
-1 x31 +1 x33 -1 x37 >= -1 ;
-1 x31 +1 x34 -1 x38 >= -1 ;
-1 x31 +1 x35 -1 x39 >= -1 ;
-1 x32 +1 x33 -1 x40 >= -1 ;
-1 x32 +1 x34 -1 x41 >= -1 ;
-1 x32 +1 x35 -1 x42 >= -1 ;
-1 x33 +1 x34 -1 x43 >= -1 ;
-1 x33 +1 x35 -1 x44 >= -1 ;
-1 x34 +1 x35 -1 x45 >= -1 ;
-1 x36 +1 x37 -1 x40 >= -1 ;
-1 x36 +1 x38 -1 x41 >= -1 ;
-1 x36 +1 x39 -1 x42 >= -1 ;
-1 x37 +1 x38 -1 x43 >= -1 ;
-1 x37 +1 x39 -1 x44 >= -1 ;
-1 x38 +1 x39 -1 x45 >= -1 ;
-1 x40 +1 x41 -1 x43 >= -1 ;
-1 x40 +1 x42 -1 x44 >= -1 ;
-1 x41 +1 x42 -1 x45 >= -1 ;
-1 x43 +1 x44 -1 x45 >= -1 ;
-1 x1 +1 x2 +1 x3 >= 0 ;
+1 x3 -1 x4 +1 x5 >= 0 ;
+1 x3 -1 x6 +1 x7 >= 0 ;
+1 x3 -1 x8 +1 x9 >= 0 ;
+1 x3 -1 x10 +1 x11 >= 0 ;
+1 x3 -1 x12 +1 x13 >= 0 ;
+1 x3 -1 x14 +1 x15 >= 0 ;
+1 x3 -1 x16 +1 x17 >= 0 ;
+1 x1 -1 x4 +1 x18 >= 0 ;
+1 x1 -1 x6 +1 x19 >= 0 ;
+1 x1 -1 x8 +1 x20 >= 0 ;
+1 x1 -1 x10 +1 x21 >= 0 ;
+1 x1 -1 x12 +1 x22 >= 0 ;
+1 x1 -1 x14 +1 x23 >= 0 ;
+1 x1 -1 x16 +1 x24 >= 0 ;
+1 x4 -1 x6 +1 x25 >= 0 ;
+1 x4 -1 x8 +1 x26 >= 0 ;
+1 x4 -1 x10 +1 x27 >= 0 ;
+1 x4 -1 x12 +1 x28 >= 0 ;
+1 x4 -1 x14 +1 x29 >= 0 ;
+1 x4 -1 x16 +1 x30 >= 0 ;
+1 x6 -1 x8 +1 x31 >= 0 ;
+1 x6 -1 x10 +1 x32 >= 0 ;
+1 x6 -1 x12 +1 x33 >= 0 ;
+1 x6 -1 x14 +1 x34 >= 0 ;
+1 x6 -1 x16 +1 x35 >= 0 ;
+1 x8 -1 x10 +1 x36 >= 0 ;
+1 x8 -1 x12 +1 x37 >= 0 ;
+1 x8 -1 x14 +1 x38 >= 0 ;
+1 x8 -1 x16 +1 x39 >= 0 ;
+1 x10 -1 x12 +1 x40 >= 0 ;
+1 x10 -1 x14 +1 x41 >= 0 ;
+1 x10 -1 x16 +1 x42 >= 0 ;
+1 x12 -1 x14 +1 x43 >= 0 ;
+1 x12 -1 x16 +1 x44 >= 0 ;
+1 x14 -1 x16 +1 x45 >= 0 ;
+1 x2 -1 x5 +1 x18 >= 0 ;
+1 x2 -1 x7 +1 x19 >= 0 ;
+1 x2 -1 x9 +1 x20 >= 0 ;
+1 x2 -1 x11 +1 x21 >= 0 ;
+1 x2 -1 x13 +1 x22 >= 0 ;
+1 x2 -1 x15 +1 x23 >= 0 ;
+1 x2 -1 x17 +1 x24 >= 0 ;
+1 x5 -1 x7 +1 x25 >= 0 ;
+1 x5 -1 x9 +1 x26 >= 0 ;
+1 x5 -1 x11 +1 x27 >= 0 ;
+1 x5 -1 x13 +1 x28 >= 0 ;
+1 x5 -1 x15 +1 x29 >= 0 ;
+1 x5 -1 x17 +1 x30 >= 0 ;
+1 x7 -1 x9 +1 x31 >= 0 ;
+1 x7 -1 x11 +1 x32 >= 0 ;
+1 x7 -1 x13 +1 x33 >= 0 ;
+1 x7 -1 x15 +1 x34 >= 0 ;
+1 x7 -1 x17 +1 x35 >= 0 ;
+1 x9 -1 x11 +1 x36 >= 0 ;
+1 x9 -1 x13 +1 x37 >= 0 ;
+1 x9 -1 x15 +1 x38 >= 0 ;
+1 x9 -1 x17 +1 x39 >= 0 ;
+1 x11 -1 x13 +1 x40 >= 0 ;
+1 x11 -1 x15 +1 x41 >= 0 ;
+1 x11 -1 x17 +1 x42 >= 0 ;
+1 x13 -1 x15 +1 x43 >= 0 ;
+1 x13 -1 x17 +1 x44 >= 0 ;
+1 x15 -1 x17 +1 x45 >= 0 ;
+1 x18 -1 x19 +1 x25 >= 0 ;
+1 x18 -1 x20 +1 x26 >= 0 ;
+1 x18 -1 x21 +1 x27 >= 0 ;
+1 x18 -1 x22 +1 x28 >= 0 ;
+1 x18 -1 x23 +1 x29 >= 0 ;
+1 x18 -1 x24 +1 x30 >= 0 ;
+1 x19 -1 x20 +1 x31 >= 0 ;
+1 x19 -1 x21 +1 x32 >= 0 ;
+1 x19 -1 x22 +1 x33 >= 0 ;
+1 x19 -1 x23 +1 x34 >= 0 ;
+1 x19 -1 x24 +1 x35 >= 0 ;
+1 x20 -1 x21 +1 x36 >= 0 ;
+1 x20 -1 x22 +1 x37 >= 0 ;
+1 x20 -1 x23 +1 x38 >= 0 ;
+1 x20 -1 x24 +1 x39 >= 0 ;
+1 x21 -1 x22 +1 x40 >= 0 ;
+1 x21 -1 x23 +1 x41 >= 0 ;
+1 x21 -1 x24 +1 x42 >= 0 ;
+1 x22 -1 x23 +1 x43 >= 0 ;
+1 x22 -1 x24 +1 x44 >= 0 ;
+1 x23 -1 x24 +1 x45 >= 0 ;
+1 x25 -1 x26 +1 x31 >= 0 ;
+1 x25 -1 x27 +1 x32 >= 0 ;
+1 x25 -1 x28 +1 x33 >= 0 ;
+1 x25 -1 x29 +1 x34 >= 0 ;
+1 x25 -1 x30 +1 x35 >= 0 ;
+1 x26 -1 x27 +1 x36 >= 0 ;
+1 x26 -1 x28 +1 x37 >= 0 ;
+1 x26 -1 x29 +1 x38 >= 0 ;
+1 x26 -1 x30 +1 x39 >= 0 ;
+1 x27 -1 x28 +1 x40 >= 0 ;
+1 x27 -1 x29 +1 x41 >= 0 ;
+1 x27 -1 x30 +1 x42 >= 0 ;
+1 x28 -1 x29 +1 x43 >= 0 ;
+1 x28 -1 x30 +1 x44 >= 0 ;
+1 x29 -1 x30 +1 x45 >= 0 ;
+1 x31 -1 x32 +1 x36 >= 0 ;
+1 x31 -1 x33 +1 x37 >= 0 ;
+1 x31 -1 x34 +1 x38 >= 0 ;
+1 x31 -1 x35 +1 x39 >= 0 ;
+1 x32 -1 x33 +1 x40 >= 0 ;
+1 x32 -1 x34 +1 x41 >= 0 ;
+1 x32 -1 x35 +1 x42 >= 0 ;
+1 x33 -1 x34 +1 x43 >= 0 ;
+1 x33 -1 x35 +1 x44 >= 0 ;
+1 x34 -1 x35 +1 x45 >= 0 ;
+1 x36 -1 x37 +1 x40 >= 0 ;
+1 x36 -1 x38 +1 x41 >= 0 ;
+1 x36 -1 x39 +1 x42 >= 0 ;
+1 x37 -1 x38 +1 x43 >= 0 ;
+1 x37 -1 x39 +1 x44 >= 0 ;
+1 x38 -1 x39 +1 x45 >= 0 ;
+1 x40 -1 x41 +1 x43 >= 0 ;
+1 x40 -1 x42 +1 x44 >= 0 ;
+1 x41 -1 x42 +1 x45 >= 0 ;
+1 x43 -1 x44 +1 x45 >= 0 ;
+1 x46 -1 x47 -1 x48 >= -1 ;
-1 x48 +1 x49 -1 x50 >= -1 ;
-1 x48 +1 x51 -1 x52 >= -1 ;
-1 x48 +1 x53 -1 x54 >= -1 ;
-1 x48 +1 x55 -1 x56 >= -1 ;
-1 x48 +1 x57 -1 x58 >= -1 ;
-1 x48 +1 x59 -1 x60 >= -1 ;
-1 x48 +1 x61 -1 x62 >= -1 ;
-1 x46 +1 x49 -1 x63 >= -1 ;
-1 x46 +1 x51 -1 x64 >= -1 ;
-1 x46 +1 x53 -1 x65 >= -1 ;
-1 x46 +1 x55 -1 x66 >= -1 ;
-1 x46 +1 x57 -1 x67 >= -1 ;
-1 x46 +1 x59 -1 x68 >= -1 ;
-1 x46 +1 x61 -1 x69 >= -1 ;
-1 x49 +1 x51 -1 x70 >= -1 ;
-1 x49 +1 x53 -1 x71 >= -1 ;
-1 x49 +1 x55 -1 x72 >= -1 ;
-1 x49 +1 x57 -1 x73 >= -1 ;
-1 x49 +1 x59 -1 x74 >= -1 ;
-1 x49 +1 x61 -1 x75 >= -1 ;
-1 x51 +1 x53 -1 x76 >= -1 ;
-1 x51 +1 x55 -1 x77 >= -1 ;
-1 x51 +1 x57 -1 x78 >= -1 ;
-1 x51 +1 x59 -1 x79 >= -1 ;
-1 x51 +1 x61 -1 x80 >= -1 ;
-1 x53 +1 x55 -1 x81 >= -1 ;
-1 x53 +1 x57 -1 x82 >= -1 ;
-1 x53 +1 x59 -1 x83 >= -1 ;
-1 x53 +1 x61 -1 x84 >= -1 ;
-1 x55 +1 x57 -1 x85 >= -1 ;
-1 x55 +1 x59 -1 x86 >= -1 ;
-1 x55 +1 x61 -1 x87 >= -1 ;
-1 x57 +1 x59 -1 x88 >= -1 ;
-1 x57 +1 x61 -1 x89 >= -1 ;
-1 x59 +1 x61 -1 x90 >= -1 ;
-1 x47 +1 x50 -1 x63 >= -1 ;
-1 x47 +1 x52 -1 x64 >= -1 ;
-1 x47 +1 x54 -1 x65 >= -1 ;
-1 x47 +1 x56 -1 x66 >= -1 ;
-1 x47 +1 x58 -1 x67 >= -1 ;
-1 x47 +1 x60 -1 x68 >= -1 ;
-1 x47 +1 x62 -1 x69 >= -1 ;
-1 x50 +1 x52 -1 x70 >= -1 ;
-1 x50 +1 x54 -1 x71 >= -1 ;
-1 x50 +1 x56 -1 x72 >= -1 ;
-1 x50 +1 x58 -1 x73 >= -1 ;
-1 x50 +1 x60 -1 x74 >= -1 ;
-1 x50 +1 x62 -1 x75 >= -1 ;
-1 x52 +1 x54 -1 x76 >= -1 ;
-1 x52 +1 x56 -1 x77 >= -1 ;
-1 x52 +1 x58 -1 x78 >= -1 ;
-1 x52 +1 x60 -1 x79 >= -1 ;
-1 x52 +1 x62 -1 x80 >= -1 ;
-1 x54 +1 x56 -1 x81 >= -1 ;
-1 x54 +1 x58 -1 x82 >= -1 ;
-1 x54 +1 x60 -1 x83 >= -1 ;
-1 x54 +1 x62 -1 x84 >= -1 ;
-1 x56 +1 x58 -1 x85 >= -1 ;
-1 x56 +1 x60 -1 x86 >= -1 ;
-1 x56 +1 x62 -1 x87 >= -1 ;
-1 x58 +1 x60 -1 x88 >= -1 ;
-1 x58 +1 x62 -1 x89 >= -1 ;
-1 x60 +1 x62 -1 x90 >= -1 ;
-1 x63 +1 x64 -1 x70 >= -1 ;
-1 x63 +1 x65 -1 x71 >= -1 ;
-1 x63 +1 x66 -1 x72 >= -1 ;
-1 x63 +1 x67 -1 x73 >= -1 ;
-1 x63 +1 x68 -1 x74 >= -1 ;
-1 x63 +1 x69 -1 x75 >= -1 ;
-1 x64 +1 x65 -1 x76 >= -1 ;
-1 x64 +1 x66 -1 x77 >= -1 ;
-1 x64 +1 x67 -1 x78 >= -1 ;
-1 x64 +1 x68 -1 x79 >= -1 ;
-1 x64 +1 x69 -1 x80 >= -1 ;
-1 x65 +1 x66 -1 x81 >= -1 ;
-1 x65 +1 x67 -1 x82 >= -1 ;
-1 x65 +1 x68 -1 x83 >= -1 ;
-1 x65 +1 x69 -1 x84 >= -1 ;
-1 x66 +1 x67 -1 x85 >= -1 ;
-1 x66 +1 x68 -1 x86 >= -1 ;
-1 x66 +1 x69 -1 x87 >= -1 ;
-1 x67 +1 x68 -1 x88 >= -1 ;
-1 x67 +1 x69 -1 x89 >= -1 ;
-1 x68 +1 x69 -1 x90 >= -1 ;
-1 x70 +1 x71 -1 x76 >= -1 ;
-1 x70 +1 x72 -1 x77 >= -1 ;
-1 x70 +1 x73 -1 x78 >= -1 ;
-1 x70 +1 x74 -1 x79 >= -1 ;
-1 x70 +1 x75 -1 x80 >= -1 ;
-1 x71 +1 x72 -1 x81 >= -1 ;
-1 x71 +1 x73 -1 x82 >= -1 ;
-1 x71 +1 x74 -1 x83 >= -1 ;
-1 x71 +1 x75 -1 x84 >= -1 ;
-1 x72 +1 x73 -1 x85 >= -1 ;
-1 x72 +1 x74 -1 x86 >= -1 ;
-1 x72 +1 x75 -1 x87 >= -1 ;
-1 x73 +1 x74 -1 x88 >= -1 ;
-1 x73 +1 x75 -1 x89 >= -1 ;
-1 x74 +1 x75 -1 x90 >= -1 ;
-1 x76 +1 x77 -1 x81 >= -1 ;
-1 x76 +1 x78 -1 x82 >= -1 ;
-1 x76 +1 x79 -1 x83 >= -1 ;
-1 x76 +1 x80 -1 x84 >= -1 ;
-1 x77 +1 x78 -1 x85 >= -1 ;
-1 x77 +1 x79 -1 x86 >= -1 ;
-1 x77 +1 x80 -1 x87 >= -1 ;
-1 x78 +1 x79 -1 x88 >= -1 ;
-1 x78 +1 x80 -1 x89 >= -1 ;
-1 x79 +1 x80 -1 x90 >= -1 ;
-1 x81 +1 x82 -1 x85 >= -1 ;
-1 x81 +1 x83 -1 x86 >= -1 ;
-1 x81 +1 x84 -1 x87 >= -1 ;
-1 x82 +1 x83 -1 x88 >= -1 ;
-1 x82 +1 x84 -1 x89 >= -1 ;
-1 x83 +1 x84 -1 x90 >= -1 ;
-1 x85 +1 x86 -1 x88 >= -1 ;
-1 x85 +1 x87 -1 x89 >= -1 ;
-1 x86 +1 x87 -1 x90 >= -1 ;
-1 x88 +1 x89 -1 x90 >= -1 ;
-1 x46 +1 x47 +1 x48 >= 0 ;
+1 x48 -1 x49 +1 x50 >= 0 ;
+1 x48 -1 x51 +1 x52 >= 0 ;
+1 x48 -1 x53 +1 x54 >= 0 ;
+1 x48 -1 x55 +1 x56 >= 0 ;
+1 x48 -1 x57 +1 x58 >= 0 ;
+1 x48 -1 x59 +1 x60 >= 0 ;
+1 x48 -1 x61 +1 x62 >= 0 ;
+1 x46 -1 x49 +1 x63 >= 0 ;
+1 x46 -1 x51 +1 x64 >= 0 ;
+1 x46 -1 x53 +1 x65 >= 0 ;
+1 x46 -1 x55 +1 x66 >= 0 ;
+1 x46 -1 x57 +1 x67 >= 0 ;
+1 x46 -1 x59 +1 x68 >= 0 ;
+1 x46 -1 x61 +1 x69 >= 0 ;
+1 x49 -1 x51 +1 x70 >= 0 ;
+1 x49 -1 x53 +1 x71 >= 0 ;
+1 x49 -1 x55 +1 x72 >= 0 ;
+1 x49 -1 x57 +1 x73 >= 0 ;
+1 x49 -1 x59 +1 x74 >= 0 ;
+1 x49 -1 x61 +1 x75 >= 0 ;
+1 x51 -1 x53 +1 x76 >= 0 ;
+1 x51 -1 x55 +1 x77 >= 0 ;
+1 x51 -1 x57 +1 x78 >= 0 ;
+1 x51 -1 x59 +1 x79 >= 0 ;
+1 x51 -1 x61 +1 x80 >= 0 ;
+1 x53 -1 x55 +1 x81 >= 0 ;
+1 x53 -1 x57 +1 x82 >= 0 ;
+1 x53 -1 x59 +1 x83 >= 0 ;
+1 x53 -1 x61 +1 x84 >= 0 ;
+1 x55 -1 x57 +1 x85 >= 0 ;
+1 x55 -1 x59 +1 x86 >= 0 ;
+1 x55 -1 x61 +1 x87 >= 0 ;
+1 x57 -1 x59 +1 x88 >= 0 ;
+1 x57 -1 x61 +1 x89 >= 0 ;
+1 x59 -1 x61 +1 x90 >= 0 ;
+1 x47 -1 x50 +1 x63 >= 0 ;
+1 x47 -1 x52 +1 x64 >= 0 ;
+1 x47 -1 x54 +1 x65 >= 0 ;
+1 x47 -1 x56 +1 x66 >= 0 ;
+1 x47 -1 x58 +1 x67 >= 0 ;
+1 x47 -1 x60 +1 x68 >= 0 ;
+1 x47 -1 x62 +1 x69 >= 0 ;
+1 x50 -1 x52 +1 x70 >= 0 ;
+1 x50 -1 x54 +1 x71 >= 0 ;
+1 x50 -1 x56 +1 x72 >= 0 ;
+1 x50 -1 x58 +1 x73 >= 0 ;
+1 x50 -1 x60 +1 x74 >= 0 ;
+1 x50 -1 x62 +1 x75 >= 0 ;
+1 x52 -1 x54 +1 x76 >= 0 ;
+1 x52 -1 x56 +1 x77 >= 0 ;
+1 x52 -1 x58 +1 x78 >= 0 ;
+1 x52 -1 x60 +1 x79 >= 0 ;
+1 x52 -1 x62 +1 x80 >= 0 ;
+1 x54 -1 x56 +1 x81 >= 0 ;
+1 x54 -1 x58 +1 x82 >= 0 ;
+1 x54 -1 x60 +1 x83 >= 0 ;
+1 x54 -1 x62 +1 x84 >= 0 ;
+1 x56 -1 x58 +1 x85 >= 0 ;
+1 x56 -1 x60 +1 x86 >= 0 ;
+1 x56 -1 x62 +1 x87 >= 0 ;
+1 x58 -1 x60 +1 x88 >= 0 ;
+1 x58 -1 x62 +1 x89 >= 0 ;
+1 x60 -1 x62 +1 x90 >= 0 ;
+1 x63 -1 x64 +1 x70 >= 0 ;
+1 x63 -1 x65 +1 x71 >= 0 ;
+1 x63 -1 x66 +1 x72 >= 0 ;
+1 x63 -1 x67 +1 x73 >= 0 ;
+1 x63 -1 x68 +1 x74 >= 0 ;
+1 x63 -1 x69 +1 x75 >= 0 ;
+1 x64 -1 x65 +1 x76 >= 0 ;
+1 x64 -1 x66 +1 x77 >= 0 ;
+1 x64 -1 x67 +1 x78 >= 0 ;
+1 x64 -1 x68 +1 x79 >= 0 ;
+1 x64 -1 x69 +1 x80 >= 0 ;
+1 x65 -1 x66 +1 x81 >= 0 ;
+1 x65 -1 x67 +1 x82 >= 0 ;
+1 x65 -1 x68 +1 x83 >= 0 ;
+1 x65 -1 x69 +1 x84 >= 0 ;
+1 x66 -1 x67 +1 x85 >= 0 ;
+1 x66 -1 x68 +1 x86 >= 0 ;
+1 x66 -1 x69 +1 x87 >= 0 ;
+1 x67 -1 x68 +1 x88 >= 0 ;
+1 x67 -1 x69 +1 x89 >= 0 ;
+1 x68 -1 x69 +1 x90 >= 0 ;
+1 x70 -1 x71 +1 x76 >= 0 ;
+1 x70 -1 x72 +1 x77 >= 0 ;
+1 x70 -1 x73 +1 x78 >= 0 ;
+1 x70 -1 x74 +1 x79 >= 0 ;
+1 x70 -1 x75 +1 x80 >= 0 ;
+1 x71 -1 x72 +1 x81 >= 0 ;
+1 x71 -1 x73 +1 x82 >= 0 ;
+1 x71 -1 x74 +1 x83 >= 0 ;
+1 x71 -1 x75 +1 x84 >= 0 ;
+1 x72 -1 x73 +1 x85 >= 0 ;
+1 x72 -1 x74 +1 x86 >= 0 ;
+1 x72 -1 x75 +1 x87 >= 0 ;
+1 x73 -1 x74 +1 x88 >= 0 ;
+1 x73 -1 x75 +1 x89 >= 0 ;
+1 x74 -1 x75 +1 x90 >= 0 ;
+1 x76 -1 x77 +1 x81 >= 0 ;
+1 x76 -1 x78 +1 x82 >= 0 ;
+1 x76 -1 x79 +1 x83 >= 0 ;
+1 x76 -1 x80 +1 x84 >= 0 ;
+1 x77 -1 x78 +1 x85 >= 0 ;
+1 x77 -1 x79 +1 x86 >= 0 ;
+1 x77 -1 x80 +1 x87 >= 0 ;
+1 x78 -1 x79 +1 x88 >= 0 ;
+1 x78 -1 x80 +1 x89 >= 0 ;
+1 x79 -1 x80 +1 x90 >= 0 ;
+1 x81 -1 x82 +1 x85 >= 0 ;
+1 x81 -1 x83 +1 x86 >= 0 ;
+1 x81 -1 x84 +1 x87 >= 0 ;
+1 x82 -1 x83 +1 x88 >= 0 ;
+1 x82 -1 x84 +1 x89 >= 0 ;
+1 x83 -1 x84 +1 x90 >= 0 ;
+1 x85 -1 x86 +1 x88 >= 0 ;
+1 x85 -1 x87 +1 x89 >= 0 ;
+1 x86 -1 x87 +1 x90 >= 0 ;
+1 x88 -1 x89 +1 x90 >= 0 ;
+1 x91 = 1 ;
